# Solution for model GasLib-40
# Objective value = 1.2773794384726092e+01
loadshed[innode_1] 0
loadshed[innode_2] 0
loadshed[innode_3] 0
loadshed[innode_4] 0
loadshed[innode_5] 0
loadshed[innode_6] 0
loadshed[innode_7] 0
loadshed[innode_8] 0
loadshed[source_1] -1.5413908980235980e-01
loadshed[source_2] 1.0696595335568437e-02
loadshed[source_3] 2.2424312663897272e-01
loadshed[sink_1] 0
loadshed[sink_2] 0
loadshed[sink_3] 0
loadshed[sink_4] 0
loadshed[sink_5] 0
loadshed[sink_6] 0
loadshed[sink_7] 0
loadshed[sink_8] 0
loadshed[sink_9] 0
loadshed[sink_10] 0
loadshed[sink_11] 0
loadshed[sink_12] 7.8107277766478012e-01
loadshed[sink_13] 0
loadshed[sink_14] 0
loadshed[sink_15] 0
loadshed[sink_16] 0
loadshed[sink_17] 0
loadshed[sink_18] 0
loadshed[sink_19] 0
loadshed[sink_20] 0
loadshed[sink_21] 0
loadshed[sink_22] 0
loadshed[sink_23] 0
loadshed[sink_24] 0
loadshed[sink_25] 0
loadshed[sink_26] 0
loadshed[sink_27] 0
loadshed[sink_28] 0
loadshed[sink_29] 0
flow[source_1,sink_3] 1.8245816930104667e+02
flow[innode_1,sink_16] 1.6354166666666970e+01
flow[innode_6,sink_13] -8.1604529309982325e+00
flow[sink_13,sink_14] -24.5146195976649
flow[sink_14,sink_10] -4.0868786264331568e+01
flow[sink_25,sink_26] 1.7865977970058270e+02
flow[sink_26,sink_9] 1.5076787228194149e+02
flow[sink_9,sink_18] 1.3441370561527484e+02
flow[sink_26,sink_4] 1.1537740751974543e+01
flow[sink_4,sink_20] -1.6428489633136916e+01
flow[sink_18,sink_6] 1.1805953894860818e+02
flow[sink_25,innode_8] -1.4974983596771028e+02
flow[sink_6,sink_7] 68.9970389486075
flow[sink_6,sink_22] 3.2708333333333641e+01
flow[sink_7,sink_24] 3.6288705615273912e+01
flow[sink_22,sink_1] 1.6354166666666970e+01
flow[sink_24,sink_21] 1.9934538948607244e+01
flow[sink_21,sink_12] 3.5803722819405763e+00
flow[sink_7,sink_5] 1.6354166666667368e+01
flow[sink_5,sink_17] 0
flow[sink_17,sink_4] -1.1612063718444791e+01
flow[sink_17,sink_8] -4.7421029482218771e+00
flow[sink_3,sink_23] 16.3541666666697
flow[sink_8,sink_20] -2.1096269614888545e+01
flow[sink_25,sink_20] 5.3878925914692161e+01
flow[sink_25,sink_15] -9.0982583383233390e+01
flow[sink_15,sink_29] -6.0174340473960619e+01
flow[sink_29,sink_28] 1.6354166666667879e+01
flow[sink_29,sink_2] 6.3516576242606106e+01
flow[sink_2,sink_15] 4.7162409575939435e+01
flow[sink_29,innode_7] -1.5639925004990127e+02
flow[innode_4,sink_19] 4.7683239959729619e+01
flow[sink_19,innode_3] 4.3886088097239025e+01
flow[innode_4,innode_5] 7.4956379637935555e+01
flow[sink_27,innode_5] -7.4956379637935555e+01
flow[sink_27,sink_19] 5.8602212971268891e+01
flow[sink_10,sink_11] 3.2708333333333641e+01
flow[sink_10,innode_2] -4.6045198167092877e+01
flow[sink_10,innode_3] -4.3886088097239025e+01
flow[innode_6,sink_25] 8.1604529309982325e+00
flow[sink_11,innode_1] 1.6354166666666970e+01
flow[sink_19,innode_2] 4.6045198167092877e+01
flow[source_3,innode_4] 1.2263961959766517e+02
flow[source_2,innode_7] 1.5639925004990127e+02
flow[sink_3,innode_8] 1.4974983596771028e+02
pressure[innode_1] 7.6496100248012425e+01
pressure[innode_2] 7.9081480451643458e+01
pressure[innode_3] 78.9842996791125
pressure[innode_4] 81.01325
pressure[innode_5] 8.0961691049622885e+01
pressure[innode_6] 7.4625907137831732e+01
pressure[innode_7] 81.01325
pressure[innode_8] 8.0403362041573672e+01
pressure[source_1] 81.01325
pressure[source_2] 81.01325
pressure[source_3] 81.01325
pressure[sink_1] 4.2902050196689245e+01
pressure[sink_2] 7.5221236195494015e+01
pressure[sink_3] 8.0403362041573672e+01
pressure[sink_4] 6.0576065554377671e+01
pressure[sink_5] 3.7254392899466524e+01
pressure[sink_6] 4.5003127807076616e+01
pressure[sink_7] 4.4055962926361239e+01
pressure[sink_8] 6.0311222632572147e+01
pressure[sink_9] 5.3019157497348743e+01
pressure[sink_10] 7.6647801555615970e+01
pressure[sink_11] 7.6496100248012425e+01
pressure[sink_12] 1.01325
pressure[sink_13] 7.4670894351101950e+01
pressure[sink_14] 7.4714765351055817e+01
pressure[sink_15] 7.5067261322656222e+01
pressure[sink_16] 7.5474450413194745e+01
pressure[sink_17] 6.0132290768655224e+01
pressure[sink_18] 4.8155669006446111e+01
pressure[sink_19] 7.9081480451643458e+01
pressure[sink_20] 6.1781335942172319e+01
pressure[sink_21] 2.2873424124527331e+00
pressure[sink_22] 4.3965819339044252e+01
pressure[sink_23] 8.0238644029913885e+01
pressure[sink_24] 2.5080989099129702e+00
pressure[sink_25] 7.4625907137831732e+01
pressure[sink_26] 6.2043003774589828e+01
pressure[sink_27] 8.0339691603125033e+01
pressure[sink_28] 7.6534900480906117e+01
pressure[sink_29] 7.6830182754523292e+01
interdiction[source_1,sink_3] 0
interdiction[innode_1,sink_16] 0
interdiction[innode_6,sink_13] 0
interdiction[sink_13,sink_14] 0
interdiction[sink_14,sink_10] 0
interdiction[sink_25,sink_26] 0
interdiction[sink_26,sink_9] 0
interdiction[sink_9,sink_18] 0
interdiction[sink_26,sink_4] 0
interdiction[sink_4,sink_20] 0
interdiction[sink_18,sink_6] 0
interdiction[sink_25,innode_8] 0
interdiction[sink_6,sink_7] 0
interdiction[sink_6,sink_22] 0
interdiction[sink_7,sink_24] 0
interdiction[sink_22,sink_1] 0
interdiction[sink_24,sink_21] 0
interdiction[sink_21,sink_12] 0
interdiction[sink_7,sink_5] 0
interdiction[sink_5,sink_17] 1
interdiction[sink_17,sink_4] 0
interdiction[sink_17,sink_8] 0
interdiction[sink_3,sink_23] 0
interdiction[sink_8,sink_20] 0
interdiction[sink_25,sink_20] 0
interdiction[sink_25,sink_15] 0
interdiction[sink_15,sink_29] 0
interdiction[sink_29,sink_28] 0
interdiction[sink_29,sink_2] 0
interdiction[sink_2,sink_15] 0
interdiction[sink_29,innode_7] 0
interdiction[innode_4,sink_19] 0
interdiction[sink_19,innode_3] 0
interdiction[innode_4,innode_5] 0
interdiction[sink_27,innode_5] 0
interdiction[sink_27,sink_19] 0
interdiction[sink_10,sink_11] 0
interdiction[sink_10,innode_2] 0
interdiction[sink_10,innode_3] 0
interdiction[innode_6,sink_25] 0
interdiction[sink_11,innode_1] 0
interdiction[sink_19,innode_2] 0
interdiction[source_3,innode_4] 0
interdiction[source_2,innode_7] 0
interdiction[sink_3,innode_8] 0
WCcheckFlow[source_1,sink_3] 39
WCcheckFlow[innode_1,sink_16] 1
WCcheckFlow[innode_6,sink_13] 13
WCcheckFlow[sink_13,sink_14] 12
WCcheckFlow[sink_14,sink_10] 11
WCcheckFlow[sink_25,sink_26] 15
WCcheckFlow[sink_26,sink_9] 10
WCcheckFlow[sink_9,sink_18] 9
WCcheckFlow[sink_26,sink_4] 4
WCcheckFlow[sink_4,sink_20] 1
WCcheckFlow[sink_18,sink_6] 8
WCcheckFlow[sink_25,innode_8] -36
WCcheckFlow[sink_6,sink_7] 5
WCcheckFlow[sink_6,sink_22] 2
WCcheckFlow[sink_7,sink_24] 3
WCcheckFlow[sink_22,sink_1] 1
WCcheckFlow[sink_24,sink_21] 2
WCcheckFlow[sink_21,sink_12] 1
WCcheckFlow[sink_7,sink_5] 1
WCcheckFlow[sink_5,sink_17] 0
WCcheckFlow[sink_17,sink_4] -2
WCcheckFlow[sink_17,sink_8] 1
WCcheckFlow[sink_3,sink_23] 1
WCcheckFlow[sink_8,sink_20] 0
WCcheckFlow[sink_25,sink_20] 0
WCcheckFlow[sink_25,sink_15] 6
WCcheckFlow[sink_15,sink_29] 5
WCcheckFlow[sink_29,sink_28] 1
WCcheckFlow[sink_29,sink_2] 1
WCcheckFlow[sink_2,sink_15] 0
WCcheckFlow[sink_29,innode_7] 2
WCcheckFlow[innode_4,sink_19] -4
WCcheckFlow[sink_19,innode_3] -5
WCcheckFlow[innode_4,innode_5] 2
WCcheckFlow[sink_27,innode_5] -1
WCcheckFlow[sink_27,sink_19] 0
WCcheckFlow[sink_10,sink_11] 3
WCcheckFlow[sink_10,innode_2] 1
WCcheckFlow[sink_10,innode_3] 6
WCcheckFlow[innode_6,sink_25] -14
WCcheckFlow[sink_11,innode_1] 2
WCcheckFlow[sink_19,innode_2] 0
WCcheckFlow[source_3,innode_4] -1
WCcheckFlow[source_2,innode_7] -1
WCcheckFlow[sink_3,innode_8] 37
